<instance format="XCSP3" type="COP">
  <variables>
    <array id="x" size="[30]"> 0 1 </array>
  </variables>
  <constraints>
    <sum>
      <list> x[] </list>
      <coeffs> 18 1 1 24 14 11 19 14 7 15 11 17 6 6 13 5 20 20 11 25 24 4 3 20 16 13 20 8 21 6 </coeffs>
      <condition> (le,100) </condition>
    </sum>
  </constraints>
  <objectives>
    <maximize type="sum">
      <list> x[] </list>
      <coeffs> 12 69 24 76 95 82 9 88 10 79 21 34 52 51 68 57 69 54 7 72 72 1 34 53 86 93 10 92 86 79 </coeffs>
    </maximize>
  </objectives>
</instance>
